54
75
60	9
59	12
58	6
57	10
56	6
55	16
54	14
53	13
52	8
51	6
50	5
49	14
48	9
47	9
46	8
45	7
44	14
43	4
42	11
41	6
40	11
39	13
38	2
37	16
36	6
35	10
34	8
33	6
32	9
31	7
30	10
29	8
28	8
27	7
26	13
25	9
24	11
23	13
22	9
21	4
20	13
19	10
18	9
17	11
16	5
15	7
14	7
13	4
12	7
11	11
10	17
9	11
8	11
7	10
